(set-logic QF_UF)
(declare-fun A0 () Bool)
(declare-fun A1 () Bool)
(declare-fun A3 () Bool)
(declare-fun A4 () Bool)
(declare-fun A5 () Bool)
(declare-fun A6 () Bool)
(declare-fun A7 () Bool)
(declare-fun A8 () Bool)
(declare-fun A9 () Bool)
(declare-fun A10 () Bool)
(declare-fun A11 () Bool)
(declare-fun A12 () Bool)
(declare-fun A13 () Bool)
(declare-fun A14 () Bool)
(declare-fun A15 () Bool)
(declare-fun A16 () Bool)
(declare-fun A18 () Bool)
(declare-fun A19 () Bool)
(declare-fun A20 () Bool)
(declare-fun A21 () Bool)
(declare-fun A22 () Bool)
(declare-fun A23 () Bool)
(declare-fun A24 () Bool)
(declare-fun A25 () Bool)
(declare-fun A26 () Bool)
(declare-fun A27 () Bool)
(declare-fun A28 () Bool)
(declare-fun A29 () Bool)
(assert (let ((.def_0 (not A22))) (let ((.def_1 (and .def_0 A23))) (let ((.def_2 (not .def_1))) (let ((.def_3 (not A8))) (let ((.def_4 (not A3))) (let ((.def_5 (and .def_4 .def_3))) (let ((.def_6 (not .def_5))) (let ((.def_7 (or .def_6 .def_2))) (let ((.def_8 (not .def_7))) (let ((.def_9 (not A6))) (let ((.def_10 (or .def_9 .def_0))) (let ((.def_11 (and A25 A25))) (let ((.def_12 (or .def_11 .def_10))) (let ((.def_13 (not .def_12))) (let ((.def_14 (and .def_13 .def_8))) (let ((.def_15 (not .def_14))) (let ((.def_16 (not A9))) (let ((.def_17 (or .def_16 .def_16))) (let ((.def_18 (not A19))) (let ((.def_19 (and .def_18 A26))) (let ((.def_20 (or .def_19 .def_17))) (let ((.def_21 (not A14))) (let ((.def_22 (or A29 .def_21))) (let ((.def_23 (not A4))) (let ((.def_24 (or A27 .def_23))) (let ((.def_25 (not .def_24))) (let ((.def_26 (or .def_25 .def_22))) (let ((.def_27 (or .def_26 .def_20))) (let ((.def_28 (not .def_27))) (let ((.def_29 (= .def_28 .def_15))) (let ((.def_30 (not .def_29))) (let ((.def_31 (not A28))) (let ((.def_32 (and A26 .def_31))) (let ((.def_33 (or .def_23 A14))) (let ((.def_34 (and .def_33 .def_32))) (let ((.def_35 (not .def_34))) (let ((.def_36 (not A27))) (let ((.def_37 (= .def_3 .def_36))) (let ((.def_38 (not .def_37))) (let ((.def_39 (not A29))) (let ((.def_40 (or A25 .def_39))) (let ((.def_41 (or .def_40 .def_38))) (let ((.def_42 (and .def_41 .def_35))) (let ((.def_43 (not .def_42))) (let ((.def_44 (not A24))) (let ((.def_45 (and A19 .def_44))) (let ((.def_46 (or A26 A0))) (let ((.def_47 (or .def_46 .def_45))) (let ((.def_48 (not A13))) (let ((.def_49 (or .def_48 A10))) (let ((.def_50 (not .def_49))) (let ((.def_51 (or .def_44 A18))) (let ((.def_52 (not .def_51))) (let ((.def_53 (and .def_52 .def_50))) (let ((.def_54 (and .def_53 .def_47))) (let ((.def_55 (not .def_54))) (let ((.def_56 (or .def_55 .def_43))) (let ((.def_57 (and .def_56 .def_30))) (let ((.def_58 (not .def_57))) (let ((.def_59 (not A1))) (let ((.def_60 (and .def_59 .def_39))) (let ((.def_61 (and A11 A3))) (let ((.def_62 (and .def_61 .def_60))) (let ((.def_63 (and A14 A26))) (let ((.def_64 (not .def_63))) (let ((.def_65 (= A24 A18))) (let ((.def_66 (or .def_65 .def_64))) (let ((.def_67 (or .def_66 .def_62))) (let ((.def_68 (not .def_67))) (let ((.def_69 (not A5))) (let ((.def_70 (and .def_69 A21))) (let ((.def_71 (not .def_70))) (let ((.def_72 (not A25))) (let ((.def_73 (= A15 .def_72))) (let ((.def_74 (and .def_73 .def_71))) (let ((.def_75 (or A23 A16))) (let ((.def_76 (and .def_18 A24))) (let ((.def_77 (not .def_76))) (let ((.def_78 (and .def_77 .def_75))) (let ((.def_79 (not .def_78))) (let ((.def_80 (or .def_79 .def_74))) (let ((.def_81 (not .def_80))) (let ((.def_82 (or .def_81 .def_68))) (let ((.def_83 (not .def_82))) (let ((.def_84 (or .def_39 .def_59))) (let ((.def_85 (not .def_84))) (let ((.def_86 (not A20))) (let ((.def_87 (or .def_16 .def_86))) (let ((.def_88 (not .def_87))) (let ((.def_89 (and .def_88 .def_85))) (let ((.def_90 (not .def_89))) (let ((.def_91 (not A7))) (let ((.def_92 (not A0))) (let ((.def_93 (and .def_92 .def_91))) (let ((.def_94 (not .def_93))) (let ((.def_95 (not A12))) (let ((.def_96 (and A25 .def_95))) (let ((.def_97 (= .def_96 .def_94))) (let ((.def_98 (or .def_97 .def_90))) (let ((.def_99 (not .def_98))) (let ((.def_100 (or .def_59 .def_3))) (let ((.def_101 (and .def_0 A19))) (let ((.def_102 (not .def_101))) (let ((.def_103 (and .def_102 .def_100))) (let ((.def_104 (and A29 A1))) (let ((.def_105 (not .def_104))) (let ((.def_106 (and .def_48 A11))) (let ((.def_107 (not .def_106))) (let ((.def_108 (and .def_107 .def_105))) (let ((.def_109 (and .def_108 .def_103))) (let ((.def_110 (not .def_109))) (let ((.def_111 (or .def_110 .def_99))) (let ((.def_112 (or .def_111 .def_83))) (let ((.def_113 (not .def_112))) (let ((.def_114 (and .def_113 .def_58))) (let ((.def_115 (not .def_114))) .def_115)))))))))))))))))))))))))))))))))))))))))))))))))))))))))))))))))))))))))))))))))))))))))))))))))))))))))))))))))))))
(check-sat)
